385,360
560,318
635,264
681,-74
282,535
293,688
282,535
487,547
504,59
635,110
664,382
874,672
850,575
817,673
606,880
570,748
368,507
536,511
622,397
664,382
560,318
635,110
718,169
1045,142
817,673
885,806
536,511
558,575
723,448
1020,652
850,575
948,542
875,265
452,91
504,59
999,88
857,164
723,448
704,554
487,547
471,406
385,360
171,406
368,507
681,136
